c uprop, v00.0, 
c reading from data/prog514.c.cnf
c done reading: 0.002775
p cnf 155 660
-60 -81 0
-60 -77 0
60 77 81 0
-54 77 81 0
-54 -77 -81 0
54 77 -81 0
54 -77 81 0
60 -72 0
-70 -72 0
-60 70 72 0
-60 -65 70 0
60 -65 -70 0
60 65 70 0
-60 65 -70 0
-61 72 0
-58 -61 0
58 61 -72 0
-56 58 -72 0
-56 -58 72 0
56 58 72 0
56 -58 -72 0
-55 61 0
-52 -55 0
52 55 -61 0
52 -61 -79 0
-52 61 -79 0
52 61 79 0
-52 -61 79 0
55 -83 0
-74 -83 0
-55 74 83 0
-55 74 -84 0
55 -74 -84 0
55 74 84 0
-55 -74 84 0
83 -85 0
-67 -85 0
67 -83 85 0
67 -83 -86 0
-67 83 -86 0
67 83 86 0
-67 -83 86 0
85 -87 0
-63 -87 0
63 -85 87 0
63 -85 -88 0
-63 85 -88 0
63 85 88 0
-63 -85 88 0
52 -89 0
81 -89 0
-52 -81 89 0
-52 -81 -90 0
52 81 -90 0
-52 81 90 0
52 -81 90 0
-74 -77 91 0
-74 -89 91 0
-77 -89 91 0
74 77 -91 0
74 89 -91 0
77 89 -91 0
74 -91 -92 0
77 -91 -92 0
89 -91 -92 0
-74 91 92 0
-77 91 92 0
-89 91 92 0
-74 -77 -89 92 0
74 77 89 -92 0
-67 -70 93 0
-67 -91 93 0
-70 -91 93 0
67 70 -93 0
67 91 -93 0
70 91 -93 0
67 -93 -94 0
70 -93 -94 0
91 -93 -94 0
-67 93 94 0
-70 93 94 0
-91 93 94 0
-67 -70 -91 94 0
67 70 91 -94 0
-58 -63 95 0
-63 -93 95 0
-58 -93 95 0
58 63 -95 0
63 93 -95 0
58 93 -95 0
-50 63 -95 0
-50 58 -95 0
-50 93 -95 0
50 -63 95 0
50 -58 95 0
50 -93 95 0
50 -58 -63 -93 0
-50 58 63 93 0
-49 52 0
-49 95 0
49 -52 -95 0
-48 -52 -95 0
-48 52 95 0
48 -52 95 0
48 52 -95 0
-47 74 0
-47 49 0
47 -49 -74 0
-46 -49 -74 0
-46 49 74 0
46 49 -74 0
46 -49 74 0
-45 67 0
-45 47 0
45 -47 -67 0
-47 -67 -80 0
47 67 -80 0
47 -67 80 0
-47 67 80 0
63 -76 0
45 -76 0
-45 -63 76 0
-45 -63 -69 0
45 63 -69 0
45 -63 69 0
-45 63 69 0
-57 -81 0
-57 -77 0
57 77 81 0
-51 77 81 0
-51 -77 -81 0
51 77 -81 0
51 -77 81 0
57 -73 0
-70 -73 0
-57 70 73 0
-57 -66 70 0
57 -66 -70 0
57 66 70 0
-57 66 -70 0
-62 73 0
-58 -62 0
58 62 -73 0
-44 58 -73 0
-44 -58 73 0
44 58 73 0
44 -58 -73 0
-43 62 0
-43 -90 0
43 -62 90 0
-42 -62 90 0
-42 62 -90 0
42 62 90 0
42 -62 -90 0
-41 43 0
-41 -92 0
41 -43 92 0
-40 -43 92 0
-40 43 -92 0
40 43 92 0
40 -43 -92 0
-39 41 0
-39 -94 0
39 -41 94 0
-38 -41 94 0
-38 41 -94 0
38 41 94 0
38 -41 -94 0
-37 39 0
-37 -50 0
37 -39 50 0
-36 -39 50 0
-36 39 -50 0
36 39 50 0
36 -39 -50 0
-35 37 0
-35 -48 0
35 -37 48 0
-34 -37 48 0
-34 37 -48 0
34 37 48 0
34 -37 -48 0
-33 35 0
-33 -46 0
33 -35 46 0
-32 -35 46 0
-32 35 -46 0
32 35 46 0
32 -35 -46 0
-31 33 0
-31 -80 0
31 -33 80 0
-30 -33 80 0
-30 33 -80 0
30 33 80 0
30 -33 -80 0
-29 31 0
-29 -69 0
29 -31 69 0
-31 69 -96 0
31 -69 -96 0
31 69 96 0
-31 -69 96 0
29 -97 0
-76 -97 0
-29 76 97 0
-29 76 -98 0
29 -76 -98 0
29 76 98 0
-29 -76 98 0
-99 -101 0
-101 -102 0
99 101 102 0
99 102 -104 0
-99 -102 -104 0
-99 102 104 0
99 -102 104 0
101 -105 0
-105 -106 0
-101 105 106 0
-101 106 -108 0
101 -106 -108 0
101 106 108 0
-101 -106 108 0
105 -109 0
-109 -110 0
-105 109 110 0
-105 110 -112 0
105 -110 -112 0
105 110 112 0
-105 -110 112 0
109 -113 0
-113 -114 0
-109 113 114 0
-109 114 -116 0
109 -114 -116 0
109 114 116 0
-109 -114 116 0
113 -117 0
-117 -118 0
-113 117 118 0
-113 118 -120 0
113 -118 -120 0
113 118 120 0
-113 -118 120 0
117 -121 0
-121 -122 0
-117 121 122 0
-117 122 -124 0
117 -122 -124 0
117 122 124 0
-117 -122 124 0
121 -125 0
-125 -126 0
-121 125 126 0
-121 126 -128 0
121 -126 -128 0
121 126 128 0
-121 -126 128 0
106 -129 0
99 -129 0
-99 -106 129 0
-99 -106 -130 0
99 106 -130 0
99 -106 130 0
-99 106 130 0
-102 -110 131 0
-110 -129 131 0
-102 -129 131 0
102 110 -131 0
110 129 -131 0
102 129 -131 0
110 -131 -132 0
102 -131 -132 0
129 -131 -132 0
-110 131 132 0
-102 131 132 0
-129 131 132 0
-102 -110 -129 132 0
102 110 129 -132 0
-106 -114 133 0
-114 -131 133 0
-106 -131 133 0
106 114 -133 0
114 131 -133 0
106 131 -133 0
114 -133 -134 0
106 -133 -134 0
131 -133 -134 0
-114 133 134 0
-106 133 134 0
-131 133 134 0
-106 -114 -131 134 0
106 114 131 -134 0
-110 -118 135 0
-118 -133 135 0
-110 -133 135 0
110 118 -135 0
118 133 -135 0
110 133 -135 0
118 -135 -136 0
110 -135 -136 0
133 -135 -136 0
-118 135 136 0
-110 135 136 0
-133 135 136 0
-110 -118 -133 136 0
110 118 133 -136 0
-114 -122 137 0
-122 -135 137 0
-114 -135 137 0
114 122 -137 0
122 135 -137 0
114 135 -137 0
122 -137 -138 0
114 -137 -138 0
135 -137 -138 0
-122 137 138 0
-114 137 138 0
-135 137 138 0
-114 -122 -135 138 0
114 122 135 -138 0
-118 -126 139 0
-126 -137 139 0
-118 -137 139 0
118 126 -139 0
126 137 -139 0
118 137 -139 0
126 -139 -140 0
118 -139 -140 0
137 -139 -140 0
-126 139 140 0
-118 139 140 0
-137 139 140 0
-118 -126 -137 140 0
118 126 137 -140 0
122 -141 0
139 -141 0
-122 -139 141 0
-122 -139 -142 0
122 139 -142 0
-122 139 142 0
122 -139 142 0
126 -143 0
141 -143 0
-126 -141 143 0
-126 -141 -144 0
126 141 -144 0
-126 141 144 0
126 -141 144 0
136 -145 0
99 -145 0
-99 -136 145 0
-99 -136 -146 0
99 136 -146 0
99 -136 146 0
-99 136 146 0
-102 -138 147 0
-138 -145 147 0
-102 -145 147 0
102 138 -147 0
138 145 -147 0
102 145 -147 0
138 -147 -148 0
102 -147 -148 0
145 -147 -148 0
-138 147 148 0
-102 147 148 0
-145 147 148 0
-102 -138 -145 148 0
102 138 145 -148 0
-106 -140 149 0
-140 -147 149 0
-106 -147 149 0
106 140 -149 0
140 147 -149 0
106 147 -149 0
140 -149 -150 0
106 -149 -150 0
147 -149 -150 0
-140 149 150 0
-106 149 150 0
-147 149 150 0
-106 -140 -147 150 0
106 140 147 -150 0
-110 -142 151 0
-142 -149 151 0
-110 -149 151 0
110 142 -151 0
142 149 -151 0
110 149 -151 0
142 -151 -152 0
110 -151 -152 0
149 -151 -152 0
-142 151 152 0
-110 151 152 0
-149 151 152 0
-110 -142 -149 152 0
110 142 149 -152 0
-114 -144 153 0
-144 -151 153 0
-114 -151 153 0
114 144 -153 0
144 151 -153 0
114 151 -153 0
144 -153 -154 0
114 -153 -154 0
151 -153 -154 0
-144 153 154 0
-114 153 154 0
-151 153 154 0
-114 -144 -151 154 0
114 144 151 -154 0
-118 -143 155 0
-143 -153 155 0
-118 -153 155 0
118 143 -155 0
143 153 -155 0
118 153 -155 0
-82 143 -155 0
-82 118 -155 0
-82 153 -155 0
82 -143 155 0
82 -118 155 0
82 -153 155 0
82 -118 -143 -153 0
-82 118 143 153 0
-78 122 0
-78 155 0
78 -122 -155 0
-71 -122 -155 0
-71 122 155 0
71 -122 155 0
71 122 -155 0
-59 126 0
-59 78 0
59 -78 -126 0
-53 -78 -126 0
-53 78 126 0
53 78 -126 0
53 -78 126 0
-75 -99 0
-75 -102 0
75 99 102 0
-68 99 102 0
-68 -99 -102 0
68 -99 102 0
68 99 -102 0
-64 75 0
-64 -130 0
64 -75 130 0
-75 -100 130 0
75 -100 -130 0
75 100 130 0
-75 100 -130 0
64 -103 0
-103 -132 0
-64 103 132 0
-64 -107 132 0
64 -107 -132 0
64 107 132 0
-64 107 -132 0
103 -111 0
-111 -134 0
-103 111 134 0
-103 -115 134 0
103 -115 -134 0
103 115 134 0
-103 115 -134 0
111 -119 0
-119 -146 0
-111 119 146 0
-111 -123 146 0
111 -123 -146 0
111 123 146 0
-111 123 -146 0
119 -127 0
-127 -148 0
-119 127 148 0
-28 -119 148 0
-28 119 -148 0
28 119 148 0
28 -119 -148 0
-27 127 0
-27 -150 0
27 -127 150 0
-26 -127 150 0
-26 127 -150 0
26 127 150 0
26 -127 -150 0
-25 27 0
-25 -152 0
25 -27 152 0
-24 -27 152 0
-24 27 -152 0
24 27 152 0
24 -27 -152 0
-23 25 0
-23 -154 0
23 -25 154 0
-22 -25 154 0
-22 25 -154 0
22 25 154 0
22 -25 -154 0
-21 23 0
-21 -82 0
21 -23 82 0
-20 -23 82 0
-20 23 -82 0
20 23 82 0
20 -23 -82 0
-19 21 0
-19 -71 0
19 -21 71 0
-18 -21 71 0
-18 21 -71 0
18 21 71 0
18 -21 -71 0
-17 19 0
-17 -53 0
17 -19 53 0
-16 -19 53 0
-16 19 -53 0
16 19 53 0
16 -19 -53 0
-15 17 0
-15 -59 0
15 -17 59 0
-14 -17 59 0
-14 17 -59 0
14 17 59 0
14 -17 -59 0
-13 81 0
-13 99 0
13 -81 -99 0
-81 -99 0
81 99 0
12 -77 -102 0
12 -13 -77 0
12 -13 -102 0
-12 77 102 0
-12 13 77 0
-12 13 102 0
12 -77 0
12 -102 0
12 -13 0
-13 -77 -102 0
11 -70 -130 0
11 -12 -70 0
11 -12 -130 0
-11 70 130 0
-11 12 70 0
-11 12 130 0
-11 70 0
-11 130 0
-11 12 0
12 70 130 0
10 -58 -132 0
10 -11 -58 0
10 -11 -132 0
-10 58 132 0
-10 11 58 0
-10 11 132 0
-10 58 0
-10 132 0
-10 11 0
11 58 132 0
9 -90 -134 0
9 -10 -90 0
9 -10 -134 0
-9 90 134 0
-9 10 90 0
-9 10 134 0
9 -90 0
9 -134 0
9 -10 0
-10 -90 -134 0
8 -92 -146 0
8 -9 -92 0
8 -9 -146 0
-8 92 146 0
-8 9 92 0
-8 9 146 0
8 -92 0
8 -146 0
8 -9 0
-9 -92 -146 0
7 -94 -148 0
7 -8 -94 0
7 -8 -148 0
-7 94 148 0
-7 8 94 0
-7 8 148 0
7 -94 0
7 -148 0
7 -8 0
-8 -94 -148 0
6 -50 -150 0
6 -7 -50 0
6 -7 -150 0
-6 50 150 0
-6 7 50 0
-6 7 150 0
6 -50 0
6 -150 0
6 -7 0
-7 -50 -150 0
5 -48 -152 0
5 -6 -48 0
5 -6 -152 0
-5 48 152 0
-5 6 48 0
-5 6 152 0
5 -48 0
5 -152 0
5 -6 0
-6 -48 -152 0
4 -46 -154 0
4 -5 -46 0
4 -5 -154 0
-4 46 154 0
-4 5 46 0
-4 5 154 0
4 -46 0
4 -154 0
4 -5 0
-5 -46 -154 0
3 -80 -82 0
3 -4 -80 0
3 -4 -82 0
-3 80 82 0
-3 4 80 0
-3 4 82 0
3 -80 0
3 -82 0
3 -4 0
-4 -80 -82 0
2 -69 -71 0
2 -3 -69 0
2 -3 -71 0
-2 69 71 0
-2 3 69 0
-2 3 71 0
2 -69 0
2 -71 0
2 -3 0
-3 -69 -71 0
1 -53 -76 0
1 -2 -76 0
1 -2 -53 0
-1 53 76 0
-1 2 76 0
-1 2 53 0
1 -76 0
1 -53 0
1 -2 0
-2 -53 -76 0
-1 -59 0
1 -59 0
-1 59 0
